c t pwmc
c file mc2022_track4_001.cnf
p cnf 760 1266
c p show 84 95 115 143 159 165 213 220 223 248 252 275 282 296 312 323 324 328 338 371 387 411 421 427 433 463 465 470 474 493 519 531 548 564 581 605 607 671 672 691 701 717 731 0
1 0
33 32 34 0
-34 -33 0
-34 -32 0
31 -34 35 0
-35 -31 0
-35 34 0
30 -35 36 0
-36 -30 0
-36 35 0
29 -36 37 0
-37 -29 0
-37 36 0
-28 37 38 0
-38 28 0
-38 -37 0
27 38 39 0
-39 -27 0
-39 -38 0
26 -39 40 0
-40 -26 0
-40 39 0
25 -40 41 0
-41 -25 0
-41 40 0
24 -41 42 0
-42 -24 0
-42 41 0
23 -42 43 0
-43 -23 0
-43 42 0
22 -43 44 0
-44 -22 0
-44 43 0
21 -44 45 0
-45 -21 0
-45 44 0
20 -45 46 0
-46 -20 0
-46 45 0
19 -46 47 0
-47 -19 0
-47 46 0
18 -47 48 0
-48 -18 0
-48 47 0
17 -48 49 0
-49 -17 0
-49 48 0
16 -49 50 0
-50 -16 0
-50 49 0
15 -50 51 0
-51 -15 0
-51 50 0
14 -51 52 0
-52 -14 0
-52 51 0
13 -52 53 0
-53 -13 0
-53 52 0
12 -53 54 0
-54 -12 0
-54 53 0
11 -54 55 0
-55 -11 0
-55 54 0
10 -55 56 0
-56 -10 0
-56 55 0
9 -56 57 0
-57 -9 0
-57 56 0
8 -57 58 0
-58 -8 0
-58 57 0
7 -58 59 0
-59 -7 0
-59 58 0
6 -59 60 0
-60 -6 0
-60 59 0
5 -60 61 0
-61 -5 0
-61 60 0
4 -61 62 0
-62 -4 0
-62 61 0
3 -62 63 0
-63 -3 0
-63 62 0
2 -63 64 0
-64 -2 0
-64 63 0
-64 0
-97 96 -33 0
-97 -96 33 0
97 -96 -33 0
97 96 33 0
-98 95 -32 0
-98 -95 32 0
98 -95 -32 0
98 95 32 0
-99 94 -31 0
-99 -94 31 0
99 -94 -31 0
99 94 31 0
-100 93 -30 0
-100 -93 30 0
100 -93 -30 0
100 93 30 0
-101 92 -29 0
-101 -92 29 0
101 -92 -29 0
101 92 29 0
-102 91 -28 0
-102 -91 28 0
102 -91 -28 0
102 91 28 0
-103 90 -27 0
-103 -90 27 0
103 -90 -27 0
103 90 27 0
-104 89 -26 0
-104 -89 26 0
104 -89 -26 0
104 89 26 0
-105 88 -25 0
-105 -88 25 0
105 -88 -25 0
105 88 25 0
-106 87 -24 0
-106 -87 24 0
106 -87 -24 0
106 87 24 0
-107 86 -23 0
-107 -86 23 0
107 -86 -23 0
107 86 23 0
-108 85 -22 0
-108 -85 22 0
108 -85 -22 0
108 85 22 0
-109 84 -21 0
-109 -84 21 0
109 -84 -21 0
109 84 21 0
-110 83 -20 0
-110 -83 20 0
110 -83 -20 0
110 83 20 0
-111 82 -19 0
-111 -82 19 0
111 -82 -19 0
111 82 19 0
-112 81 -18 0
-112 -81 18 0
112 -81 -18 0
112 81 18 0
-113 80 -17 0
-113 -80 17 0
113 -80 -17 0
113 80 17 0
-114 79 -16 0
-114 -79 16 0
114 -79 -16 0
114 79 16 0
-115 78 -15 0
-115 -78 15 0
115 -78 -15 0
115 78 15 0
-116 77 -14 0
-116 -77 14 0
116 -77 -14 0
116 77 14 0
-117 76 -13 0
-117 -76 13 0
117 -76 -13 0
117 76 13 0
-118 75 -12 0
-118 -75 12 0
118 -75 -12 0
118 75 12 0
-119 74 -11 0
-119 -74 11 0
119 -74 -11 0
119 74 11 0
-120 73 -10 0
-120 -73 10 0
120 -73 -10 0
120 73 10 0
-121 72 -9 0
-121 -72 9 0
121 -72 -9 0
121 72 9 0
-122 71 -8 0
-122 -71 8 0
122 -71 -8 0
122 71 8 0
-123 70 -7 0
-123 -70 7 0
123 -70 -7 0
123 70 7 0
-124 69 -6 0
-124 -69 6 0
124 -69 -6 0
124 69 6 0
-125 68 -5 0
-125 -68 5 0
125 -68 -5 0
125 68 5 0
-126 67 -4 0
-126 -67 4 0
126 -67 -4 0
126 67 4 0
-127 66 -3 0
-127 -66 3 0
127 -66 -3 0
127 66 3 0
-128 65 -2 0
-128 -65 2 0
128 -65 -2 0
128 65 2 0
-128 -127 129 0
-129 128 0
-129 127 0
-129 -126 130 0
-130 129 0
-130 126 0
-130 -125 131 0
-131 130 0
-131 125 0
-131 -124 132 0
-132 131 0
-132 124 0
-132 -123 133 0
-133 132 0
-133 123 0
-133 -122 134 0
-134 133 0
-134 122 0
-134 -121 135 0
-135 134 0
-135 121 0
-135 -120 136 0
-136 135 0
-136 120 0
-136 -119 137 0
-137 136 0
-137 119 0
-137 -118 138 0
-138 137 0
-138 118 0
-138 -117 139 0
-139 138 0
-139 117 0
-139 -116 140 0
-140 139 0
-140 116 0
-140 -115 141 0
-141 140 0
-141 115 0
-141 -114 142 0
-142 141 0
-142 114 0
-142 -113 143 0
-143 142 0
-143 113 0
-143 -112 144 0
-144 143 0
-144 112 0
-144 -111 145 0
-145 144 0
-145 111 0
-145 -110 146 0
-146 145 0
-146 110 0
-146 -109 147 0
-147 146 0
-147 109 0
-147 -108 148 0
-148 147 0
-148 108 0
-148 -107 149 0
-149 148 0
-149 107 0
-149 -106 150 0
-150 149 0
-150 106 0
-150 -105 151 0
-151 150 0
-151 105 0
-151 -104 152 0
-152 151 0
-152 104 0
-152 -103 153 0
-153 152 0
-153 103 0
-153 -102 154 0
-154 153 0
-154 102 0
-154 -101 155 0
-155 154 0
-155 101 0
-155 -100 156 0
-156 155 0
-156 100 0
-156 -99 157 0
-157 156 0
-157 99 0
-157 -98 158 0
-158 157 0
-158 98 0
-158 -97 159 0
-159 158 0
-159 97 0
-159 0
66 65 160 0
-160 -66 0
-160 -65 0
67 -160 161 0
-161 -67 0
-161 160 0
68 -161 162 0
-162 -68 0
-162 161 0
69 -162 163 0
-163 -69 0
-163 162 0
70 -163 164 0
-164 -70 0
-164 163 0
71 -164 165 0
-165 -71 0
-165 164 0
72 -165 166 0
-166 -72 0
-166 165 0
73 -166 167 0
-167 -73 0
-167 166 0
74 -167 168 0
-168 -74 0
-168 167 0
75 -168 169 0
-169 -75 0
-169 168 0
76 -169 170 0
-170 -76 0
-170 169 0
77 -170 171 0
-171 -77 0
-171 170 0
78 -171 172 0
-172 -78 0
-172 171 0
79 -172 173 0
-173 -79 0
-173 172 0
80 -173 174 0
-174 -80 0
-174 173 0
81 -174 175 0
-175 -81 0
-175 174 0
82 -175 176 0
-176 -82 0
-176 175 0
83 -176 177 0
-177 -83 0
-177 176 0
84 -177 178 0
-178 -84 0
-178 177 0
85 -178 179 0
-179 -85 0
-179 178 0
86 -179 180 0
-180 -86 0
-180 179 0
87 -180 181 0
-181 -87 0
-181 180 0
88 -181 182 0
-182 -88 0
-182 181 0
89 -182 183 0
-183 -89 0
-183 182 0
90 -183 184 0
-184 -90 0
-184 183 0
91 -184 185 0
-185 -91 0
-185 184 0
92 -185 186 0
-186 -92 0
-186 185 0
93 -186 187 0
-187 -93 0
-187 186 0
94 -187 188 0
-188 -94 0
-188 187 0
95 -188 189 0
-189 -95 0
-189 188 0
96 -189 190 0
-190 -96 0
-190 189 0
-190 0
192 191 255 0
-255 -192 0
-255 -191 0
193 -255 256 0
-256 -193 0
-256 255 0
194 -256 257 0
-257 -194 0
-257 256 0
195 -257 258 0
-258 -195 0
-258 257 0
196 -258 259 0
-259 -196 0
-259 258 0
197 -259 260 0
-260 -197 0
-260 259 0
198 -260 261 0
-261 -198 0
-261 260 0
199 -261 262 0
-262 -199 0
-262 261 0
200 -262 263 0
-263 -200 0
-263 262 0
201 -263 264 0
-264 -201 0
-264 263 0
202 -264 265 0
-265 -202 0
-265 264 0
203 -265 266 0
-266 -203 0
-266 265 0
204 -266 267 0
-267 -204 0
-267 266 0
205 -267 268 0
-268 -205 0
-268 267 0
206 -268 269 0
-269 -206 0
-269 268 0
207 -269 270 0
-270 -207 0
-270 269 0
208 -270 271 0
-271 -208 0
-271 270 0
209 -271 272 0
-272 -209 0
-272 271 0
210 -272 273 0
-273 -210 0
-273 272 0
211 -273 274 0
-274 -211 0
-274 273 0
212 -274 275 0
-275 -212 0
-275 274 0
213 -275 276 0
-276 -213 0
-276 275 0
214 -276 277 0
-277 -214 0
-277 276 0
215 -277 278 0
-278 -215 0
-278 277 0
216 -278 279 0
-279 -216 0
-279 278 0
217 -279 280 0
-280 -217 0
-280 279 0
218 -280 281 0
-281 -218 0
-281 280 0
219 -281 282 0
-282 -219 0
-282 281 0
220 -282 283 0
-283 -220 0
-283 282 0
221 -283 284 0
-284 -221 0
-284 283 0
222 -284 285 0
-285 -222 0
-285 284 0
223 -285 286 0
-286 -223 0
-286 285 0
224 -286 287 0
-287 -224 0
-287 286 0
225 -287 288 0
-288 -225 0
-288 287 0
226 -288 289 0
-289 -226 0
-289 288 0
227 -289 290 0
-290 -227 0
-290 289 0
228 -290 291 0
-291 -228 0
-291 290 0
229 -291 292 0
-292 -229 0
-292 291 0
230 -292 293 0
-293 -230 0
-293 292 0
231 -293 294 0
-294 -231 0
-294 293 0
232 -294 295 0
-295 -232 0
-295 294 0
233 -295 296 0
-296 -233 0
-296 295 0
234 -296 297 0
-297 -234 0
-297 296 0
235 -297 298 0
-298 -235 0
-298 297 0
236 -298 299 0
-299 -236 0
-299 298 0
237 -299 300 0
-300 -237 0
-300 299 0
238 -300 301 0
-301 -238 0
-301 300 0
239 -301 302 0
-302 -239 0
-302 301 0
240 -302 303 0
-303 -240 0
-303 302 0
241 -303 304 0
-304 -241 0
-304 303 0
242 -304 305 0
-305 -242 0
-305 304 0
243 -305 306 0
-306 -243 0
-306 305 0
244 -306 307 0
-307 -244 0
-307 306 0
245 -307 308 0
-308 -245 0
-308 307 0
246 -308 309 0
-309 -246 0
-309 308 0
247 -309 310 0
-310 -247 0
-310 309 0
248 -310 311 0
-311 -248 0
-311 310 0
249 -311 312 0
-312 -249 0
-312 311 0
250 -312 313 0
-313 -250 0
-313 312 0
251 -313 314 0
-314 -251 0
-314 313 0
252 -314 315 0
-315 -252 0
-315 314 0
253 -315 316 0
-316 -253 0
-316 315 0
254 -316 317 0
-317 -254 0
-317 316 0
-317 0
319 318 382 0
-382 -319 0
-382 -318 0
320 -382 383 0
-383 -320 0
-383 382 0
321 -383 384 0
-384 -321 0
-384 383 0
322 -384 385 0
-385 -322 0
-385 384 0
323 -385 386 0
-386 -323 0
-386 385 0
324 -386 387 0
-387 -324 0
-387 386 0
325 -387 388 0
-388 -325 0
-388 387 0
326 -388 389 0
-389 -326 0
-389 388 0
327 -389 390 0
-390 -327 0
-390 389 0
328 -390 391 0
-391 -328 0
-391 390 0
329 -391 392 0
-392 -329 0
-392 391 0
330 -392 393 0
-393 -330 0
-393 392 0
331 -393 394 0
-394 -331 0
-394 393 0
332 -394 395 0
-395 -332 0
-395 394 0
333 -395 396 0
-396 -333 0
-396 395 0
334 -396 397 0
-397 -334 0
-397 396 0
335 -397 398 0
-398 -335 0
-398 397 0
336 -398 399 0
-399 -336 0
-399 398 0
337 -399 400 0
-400 -337 0
-400 399 0
338 -400 401 0
-401 -338 0
-401 400 0
339 -401 402 0
-402 -339 0
-402 401 0
340 -402 403 0
-403 -340 0
-403 402 0
341 -403 404 0
-404 -341 0
-404 403 0
342 -404 405 0
-405 -342 0
-405 404 0
343 -405 406 0
-406 -343 0
-406 405 0
344 -406 407 0
-407 -344 0
-407 406 0
345 -407 408 0
-408 -345 0
-408 407 0
346 -408 409 0
-409 -346 0
-409 408 0
347 -409 410 0
-410 -347 0
-410 409 0
348 -410 411 0
-411 -348 0
-411 410 0
349 -411 412 0
-412 -349 0
-412 411 0
350 -412 413 0
-413 -350 0
-413 412 0
351 -413 414 0
-414 -351 0
-414 413 0
352 -414 415 0
-415 -352 0
-415 414 0
353 -415 416 0
-416 -353 0
-416 415 0
354 -416 417 0
-417 -354 0
-417 416 0
355 -417 418 0
-418 -355 0
-418 417 0
356 -418 419 0
-419 -356 0
-419 418 0
357 -419 420 0
-420 -357 0
-420 419 0
358 -420 421 0
-421 -358 0
-421 420 0
359 -421 422 0
-422 -359 0
-422 421 0
360 -422 423 0
-423 -360 0
-423 422 0
361 -423 424 0
-424 -361 0
-424 423 0
362 -424 425 0
-425 -362 0
-425 424 0
363 -425 426 0
-426 -363 0
-426 425 0
364 -426 427 0
-427 -364 0
-427 426 0
365 -427 428 0
-428 -365 0
-428 427 0
366 -428 429 0
-429 -366 0
-429 428 0
367 -429 430 0
-430 -367 0
-430 429 0
368 -430 431 0
-431 -368 0
-431 430 0
369 -431 432 0
-432 -369 0
-432 431 0
370 -432 433 0
-433 -370 0
-433 432 0
371 -433 434 0
-434 -371 0
-434 433 0
372 -434 435 0
-435 -372 0
-435 434 0
373 -435 436 0
-436 -373 0
-436 435 0
374 -436 437 0
-437 -374 0
-437 436 0
375 -437 438 0
-438 -375 0
-438 437 0
376 -438 439 0
-439 -376 0
-439 438 0
377 -439 440 0
-440 -377 0
-440 439 0
378 -440 441 0
-441 -378 0
-441 440 0
379 -441 442 0
-442 -379 0
-442 441 0
380 -442 443 0
-443 -380 0
-443 442 0
381 -443 444 0
-444 -381 0
-444 443 0
-444 0
446 445 509 0
-509 -446 0
-509 -445 0
447 -509 510 0
-510 -447 0
-510 509 0
448 -510 511 0
-511 -448 0
-511 510 0
449 -511 512 0
-512 -449 0
-512 511 0
450 -512 513 0
-513 -450 0
-513 512 0
451 -513 514 0
-514 -451 0
-514 513 0
452 -514 515 0
-515 -452 0
-515 514 0
453 -515 516 0
-516 -453 0
-516 515 0
454 -516 517 0
-517 -454 0
-517 516 0
455 -517 518 0
-518 -455 0
-518 517 0
456 -518 519 0
-519 -456 0
-519 518 0
457 -519 520 0
-520 -457 0
-520 519 0
458 -520 521 0
-521 -458 0
-521 520 0
459 -521 522 0
-522 -459 0
-522 521 0
460 -522 523 0
-523 -460 0
-523 522 0
461 -523 524 0
-524 -461 0
-524 523 0
462 -524 525 0
-525 -462 0
-525 524 0
463 -525 526 0
-526 -463 0
-526 525 0
464 -526 527 0
-527 -464 0
-527 526 0
465 -527 528 0
-528 -465 0
-528 527 0
466 -528 529 0
-529 -466 0
-529 528 0
467 -529 530 0
-530 -467 0
-530 529 0
468 -530 531 0
-531 -468 0
-531 530 0
469 -531 532 0
-532 -469 0
-532 531 0
470 -532 533 0
-533 -470 0
-533 532 0
471 -533 534 0
-534 -471 0
-534 533 0
472 -534 535 0
-535 -472 0
-535 534 0
473 -535 536 0
-536 -473 0
-536 535 0
474 -536 537 0
-537 -474 0
-537 536 0
475 -537 538 0
-538 -475 0
-538 537 0
476 -538 539 0
-539 -476 0
-539 538 0
477 -539 540 0
-540 -477 0
-540 539 0
478 -540 541 0
-541 -478 0
-541 540 0
479 -541 542 0
-542 -479 0
-542 541 0
480 -542 543 0
-543 -480 0
-543 542 0
481 -543 544 0
-544 -481 0
-544 543 0
482 -544 545 0
-545 -482 0
-545 544 0
483 -545 546 0
-546 -483 0
-546 545 0
484 -546 547 0
-547 -484 0
-547 546 0
485 -547 548 0
-548 -485 0
-548 547 0
486 -548 549 0
-549 -486 0
-549 548 0
487 -549 550 0
-550 -487 0
-550 549 0
488 -550 551 0
-551 -488 0
-551 550 0
489 -551 552 0
-552 -489 0
-552 551 0
490 -552 553 0
-553 -490 0
-553 552 0
491 -553 554 0
-554 -491 0
-554 553 0
492 -554 555 0
-555 -492 0
-555 554 0
493 -555 556 0
-556 -493 0
-556 555 0
494 -556 557 0
-557 -494 0
-557 556 0
495 -557 558 0
-558 -495 0
-558 557 0
496 -558 559 0
-559 -496 0
-559 558 0
497 -559 560 0
-560 -497 0
-560 559 0
498 -560 561 0
-561 -498 0
-561 560 0
499 -561 562 0
-562 -499 0
-562 561 0
500 -562 563 0
-563 -500 0
-563 562 0
501 -563 564 0
-564 -501 0
-564 563 0
502 -564 565 0
-565 -502 0
-565 564 0
503 -565 566 0
-566 -503 0
-566 565 0
504 -566 567 0
-567 -504 0
-567 566 0
505 -567 568 0
-568 -505 0
-568 567 0
506 -568 569 0
-569 -506 0
-569 568 0
507 -569 570 0
-570 -507 0
-570 569 0
508 -570 571 0
-571 -508 0
-571 570 0
-571 0
573 572 604 0
-604 -573 0
-604 -572 0
574 -604 605 0
-605 -574 0
-605 604 0
575 -605 606 0
-606 -575 0
-606 605 0
576 -606 607 0
-607 -576 0
-607 606 0
577 -607 608 0
-608 -577 0
-608 607 0
578 -608 609 0
-609 -578 0
-609 608 0
579 -609 610 0
-610 -579 0
-610 609 0
580 -610 611 0
-611 -580 0
-611 610 0
581 -611 612 0
-612 -581 0
-612 611 0
582 -612 613 0
-613 -582 0
-613 612 0
583 -613 614 0
-614 -583 0
-614 613 0
584 -614 615 0
-615 -584 0
-615 614 0
585 -615 616 0
-616 -585 0
-616 615 0
586 -616 617 0
-617 -586 0
-617 616 0
587 -617 618 0
-618 -587 0
-618 617 0
588 -618 619 0
-619 -588 0
-619 618 0
589 -619 620 0
-620 -589 0
-620 619 0
590 -620 621 0
-621 -590 0
-621 620 0
591 -621 622 0
-622 -591 0
-622 621 0
592 -622 623 0
-623 -592 0
-623 622 0
593 -623 624 0
-624 -593 0
-624 623 0
594 -624 625 0
-625 -594 0
-625 624 0
595 -625 626 0
-626 -595 0
-626 625 0
596 -626 627 0
-627 -596 0
-627 626 0
597 -627 628 0
-628 -597 0
-628 627 0
598 -628 629 0
-629 -598 0
-629 628 0
599 -629 630 0
-630 -599 0
-630 629 0
600 -630 631 0
-631 -600 0
-631 630 0
601 -631 632 0
-632 -601 0
-632 631 0
602 -632 633 0
-633 -602 0
-633 632 0
-603 -633 634 0
-634 603 0
-634 633 0
-634 0
603 -633 635 0
-635 -603 0
-635 633 0
-635 0
637 636 699 0
-699 -637 0
-699 -636 0
638 -699 700 0
-700 -638 0
-700 699 0
639 -700 701 0
-701 -639 0
-701 700 0
640 -701 702 0
-702 -640 0
-702 701 0
641 -702 703 0
-703 -641 0
-703 702 0
642 -703 704 0
-704 -642 0
-704 703 0
643 -704 705 0
-705 -643 0
-705 704 0
644 -705 706 0
-706 -644 0
-706 705 0
645 -706 707 0
-707 -645 0
-707 706 0
646 -707 708 0
-708 -646 0
-708 707 0
647 -708 709 0
-709 -647 0
-709 708 0
648 -709 710 0
-710 -648 0
-710 709 0
649 -710 711 0
-711 -649 0
-711 710 0
650 -711 712 0
-712 -650 0
-712 711 0
651 -712 713 0
-713 -651 0
-713 712 0
652 -713 714 0
-714 -652 0
-714 713 0
653 -714 715 0
-715 -653 0
-715 714 0
654 -715 716 0
-716 -654 0
-716 715 0
655 -716 717 0
-717 -655 0
-717 716 0
656 -717 718 0
-718 -656 0
-718 717 0
657 -718 719 0
-719 -657 0
-719 718 0
658 -719 720 0
-720 -658 0
-720 719 0
659 -720 721 0
-721 -659 0
-721 720 0
660 -721 722 0
-722 -660 0
-722 721 0
661 -722 723 0
-723 -661 0
-723 722 0
662 -723 724 0
-724 -662 0
-724 723 0
663 -724 725 0
-725 -663 0
-725 724 0
664 -725 726 0
-726 -664 0
-726 725 0
665 -726 727 0
-727 -665 0
-727 726 0
666 -727 728 0
-728 -666 0
-728 727 0
667 -728 729 0
-729 -667 0
-729 728 0
668 -729 730 0
-730 -668 0
-730 729 0
669 -730 731 0
-731 -669 0
-731 730 0
670 -731 732 0
-732 -670 0
-732 731 0
671 -732 733 0
-733 -671 0
-733 732 0
672 -733 734 0
-734 -672 0
-734 733 0
673 -734 735 0
-735 -673 0
-735 734 0
674 -735 736 0
-736 -674 0
-736 735 0
675 -736 737 0
-737 -675 0
-737 736 0
676 -737 738 0
-738 -676 0
-738 737 0
677 -738 739 0
-739 -677 0
-739 738 0
678 -739 740 0
-740 -678 0
-740 739 0
679 -740 741 0
-741 -679 0
-741 740 0
680 -741 742 0
-742 -680 0
-742 741 0
681 -742 743 0
-743 -681 0
-743 742 0
682 -743 744 0
-744 -682 0
-744 743 0
683 -744 745 0
-745 -683 0
-745 744 0
684 -745 746 0
-746 -684 0
-746 745 0
685 -746 747 0
-747 -685 0
-747 746 0
686 -747 748 0
-748 -686 0
-748 747 0
687 -748 749 0
-749 -687 0
-749 748 0
688 -749 750 0
-750 -688 0
-750 749 0
689 -750 751 0
-751 -689 0
-751 750 0
690 -751 752 0
-752 -690 0
-752 751 0
691 -752 753 0
-753 -691 0
-753 752 0
692 -753 754 0
-754 -692 0
-754 753 0
693 -754 755 0
-755 -693 0
-755 754 0
694 -755 756 0
-756 -694 0
-756 755 0
695 -756 757 0
-757 -695 0
-757 756 0
696 -757 758 0
-758 -696 0
-758 757 0
697 -758 759 0
-759 -697 0
-759 758 0
698 -759 760 0
-760 -698 0
-760 759 0
-760 0
c p weight 387 0.36304315 0
c p weight -387 0.63695685 0
c p weight 519 0.45597009 0
c p weight -519 0.54402991 0
c p weight 143 0.54495137 0
c p weight -143 0.45504863 0
c p weight 275 0.47711662 0
c p weight -275 0.52288338 0
c p weight 531 0.74482119 0
c p weight -531 0.25517881 0
c p weight 282 0.26119126 0
c p weight -282 0.73880874 0
c p weight 411 0.37712482 0
c p weight -411 0.62287518 0
c p weight 159 0.34395742 0
c p weight -159 0.65604258 0
c p weight 671 0.54302764 0
c p weight -671 0.45697236 0
c p weight 672 0.41434448 0
c p weight -672 0.58565552 0
c p weight 548 0.67723047 0
c p weight -548 0.32276953 0
c p weight 165 0.31495620 0
c p weight -165 0.68504380 0
c p weight 421 0.24922962 0
c p weight -421 0.75077038 0
c p weight 296 0.37273203 0
c p weight -296 0.62726797 0
c p weight 427 0.55140037 0
c p weight -427 0.44859963 0
c p weight 433 0.51115890 0
c p weight -433 0.48884110 0
c p weight 691 0.33389278 0
c p weight -691 0.66610722 0
c p weight 564 0.46023745 0
c p weight -564 0.53976255 0
c p weight 312 0.77450927 0
c p weight -312 0.22549073 0
c p weight 701 0.49611849 0
c p weight -701 0.50388151 0
c p weight 323 0.54978397 0
c p weight -323 0.45021603 0
c p weight 324 0.36652324 0
c p weight -324 0.63347676 0
c p weight 581 0.77566018 0
c p weight -581 0.22433982 0
c p weight 328 0.70231206 0
c p weight -328 0.29768794 0
c p weight 717 0.32728326 0
c p weight -717 0.67271674 0
c p weight 463 0.26881226 0
c p weight -463 0.73118774 0
c p weight 465 0.47034813 0
c p weight -465 0.52965187 0
c p weight 338 0.24425752 0
c p weight -338 0.75574248 0
c p weight 84 0.79363549 0
c p weight -84 0.20636451 0
c p weight 213 0.57817262 0
c p weight -213 0.42182738 0
c p weight 470 0.61429131 0
c p weight -470 0.38570869 0
c p weight 474 0.28745598 0
c p weight -474 0.71254402 0
c p weight 731 0.49413068 0
c p weight -731 0.50586932 0
c p weight 220 0.71607609 0
c p weight -220 0.28392391 0
c p weight 605 0.69016595 0
c p weight -605 0.30983405 0
c p weight 223 0.50020402 0
c p weight -223 0.49979598 0
c p weight 95 0.67263020 0
c p weight -95 0.32736980 0
c p weight 607 0.62199296 0
c p weight -607 0.37800704 0
c p weight 493 0.20912914 0
c p weight -493 0.79087086 0
c p weight 115 0.52127005 0
c p weight -115 0.47872995 0
c p weight 371 0.23457777 0
c p weight -371 0.76542223 0
c p weight 248 0.21832352 0
c p weight -248 0.78167648 0
c p weight 252 0.50090029 0
c p weight -252 0.49909971 0
